1226270
94,5,29,102,55,73,91,3,66,78,22,14,52,16,79,47,20,99,101,53,57,103,21,63,48,10,88,90,96,46,70,104,98,75,49,17,6,87,64,59,41,72,18,61,86,95,92,12,67,39,54,32,77,107,105,11,35,27,7,13,38,30,69,68,26,85,74,56,71,37,40,25,36,8,76,65,9,108,23,89,44,81,0,4,34,97,100,33,51,28,58,83,50,1,80,45,93,106,15,24,82,2,62,19,43,42,84,60,31
